instances/p1/p1_15_8-4.dzn
Alphabet = {A,C,G,T};
ns = 15;
nc = 8;
neighbours = [| I(A),I(A),I(C),I(A),I(C),I(A),I(A),I(A) | I(A),I(A),I(A),I(A),I(C),I(A),I(A),I(A) | I(A),I(A),I(A),I(A),I(A),I(A),I(C),I(A) | I(A),I(A),I(A),I(A),I(G),I(A),I(A),I(A) | I(C),I(A),I(C),I(A),I(A),I(A),I(A),I(A) | I(A),I(A),I(A),I(A),I(A),I(C),I(A),I(C) | I(A),I(C),I(A),I(C),I(G),I(A),I(A),I(A) | I(A),I(A),I(A),I(A),I(G),I(C),I(A),I(C) | I(A),I(A),I(C),I(C),I(A),I(A),I(A),I(A) | I(C),I(G),I(C),I(A),I(A),I(A),I(A),I(C) | I(A),I(A),I(A),I(A),I(C),I(A),I(A),I(A) | I(A),I(C),I(A),I(A),I(A),I(C),I(C),I(C) | I(C),I(C),I(A),I(A),I(A),I(C),I(A),I(C) | I(C),I(A),I(A),I(C),I(A),I(C),I(A),I(A) | I(C),I(A),I(A),I(A),I(C),I(A),I(C),I(A) |];
